Route #1: 5 84 17 86 16 91 98
Route #2: 76 9 78 79 68
Route #3: 53 73 74 72 21 26 28
Route #4: 52 48 82 18 89 0 51 20 66 71 35 34 29 24 80
Route #5: 27 33 65 30 69 0 22 75 56 4 55 25 54
Route #6: 92 42 15 38 44 99 87 0 6 61 85 93 96
Route #7: 39 67 23 41 40 0 7 19 49 47 46 83 60 0 13 95 59 94 0 97 37 100 14 43 57 2 58
Route #8: 45 36 64 11 62 88 8 0 31 10 63 90 32 70 1 0 50 81 3 77 12
Cost: 13709
Optimal: True
